20
20
30
30
30
40
40
40
40
40
40
20
30
20
30
30
30
30
30
30
30
30
30
30
30
30
30
30
30
30
30
30
30
30
30
30
30
20
20
20
20
20
20
20
20
20
20
20
20
20
20
20
20
20
20
20
20
20
20
20
20
20
20
20
20
20
20
20
30
30
30
30
30
30
30
30
30
30
30
30
30
20
20
30
30
30
30
20
20
20
20
20
40
30
30
20
20
20
